# Solution for model count
# Objective value = 10
z#1 0
z#2 1
z#3 1
z#4 1
z#5 0
z#6 0
z#7 0
z#8 1
z#9 0
z#10 0
z#11 1
z#12 1
z#13 1
z#14 0
z#15 1
z#16 0
z#17 0
z#18 1
z#19 0
z#20 0
z#21 0
z#22 1
z#23 0
z#24 0
x#24 0
x#23 0
x#22 4312
x#21 0
x#20 0
x#19 0
x#18 279
x#17 0
x#16 0
x#15 393
x#14 0
x#13 78
x#12 541
x#11 1865
x#10 0
x#9 0
x#8 209
x#7 0
x#6 0
x#5 0
x#4 289
x#3 1033
x#2 1001
x#1 0
